(set-info :smt-lib-version 2.6)
(set-logic QF_S)
(set-info :source |
Generated by: Shaoke Cui
Generated on: 2025-04-10
Application: Using String Solvers to solve string matching problems
Target solver: Z3, Z3alpha, Z3-noodler
Benchmarks for string matching problem with wildcards, which needs to determine whether two strings containing two wildcards can match.
Use re.allchar and (re.* re.allchar) to represent wildcards.
Determine whether the two strings match by judging whether the result of re.inter is re.none.
|)
(set-info :license "https://creativecommons.org/licenses/by/4.0/")
(set-info :category "crafted")
(set-info :status unknown)
(assert (= re.none (re.inter  (re.++ (str.to_re "vd") re.allchar (str.to_re "htbjm") re.allchar (str.to_re "fdxeduwmvzqpcddzaspucgctwzkuspkajwbqt") (re.* re.allchar) (str.to_re "phhluvsgfql") re.allchar (str.to_re "gzetqlzvmwrezzxrhuaunru") re.allchar (str.to_re "uvvwfrsexscxedxfarcbndzhwhcwvrytgmecfxdgllu") (re.* re.allchar) (str.to_re "xqyycropxxstrjnl") re.allchar (str.to_re "ldwxolarsqindqrrwdsd") (re.* re.allchar) (str.to_re "mxmsurtfgtzqosjhlmltp") re.allchar (str.to_re "xdfustzttijrspxqm") re.allchar (str.to_re "omhnpupbwgwaxsmdfu") (re.* re.allchar) (str.to_re "za") (re.* re.allchar) (re.* re.allchar) (str.to_re "nusnrpjhewtpsadetusmctyp") (re.* re.allchar) (str.to_re "ikhoiaetwlvcaniohls") (re.* re.allchar) (str.to_re "pjpkrxswgzlvtopwurgnlbicmt") re.allchar (str.to_re "rtkb") (re.* re.allchar) (str.to_re "usnu") re.allchar (str.to_re "lgteduh") (re.* re.allchar) (str.to_re "tljrubkkqrjjdrpqvjpfoeqi") (re.* re.allchar) (re.* re.allchar) (str.to_re "kpybwnjoghqcwhakpwbxteudnjbfd") (re.* re.allchar) (str.to_re "xqukaygxcsslgne") re.allchar (str.to_re "gwicgyyqhdudn") re.allchar (str.to_re "oatbjvzjibf") re.allchar (str.to_re "pt") re.allchar re.allchar (str.to_re "nxfpls") re.allchar re.allchar (str.to_re "hnhqrw") re.allchar (str.to_re "zizapjxbvluqjajxssxly") re.allchar (str.to_re "xsidapg") re.allchar (str.to_re "g") re.allchar (str.to_re "ouayg") (re.* re.allchar) (str.to_re "goufwwropafqp") re.allchar (str.to_re "jwgh") re.allchar (str.to_re "oxc") re.allchar (str.to_re "jwmjyhkhjbpsfmejdnq") (re.* re.allchar) (str.to_re "a") (re.* re.allchar) (str.to_re "ldcnhwx") re.allchar (str.to_re "zszpig") (re.* re.allchar) (str.to_re "qxspksabojdyuxcidgtmparttsntxhg") (re.* re.allchar) (str.to_re "skeeksmwfjfu") (re.* re.allchar) (str.to_re "vmdxpb") (re.* re.allchar) (str.to_re "jazqpsti") re.allchar (str.to_re "zqmstyqfamgiz") re.allchar (str.to_re "aqurgnioqvoyzvfbckqbpwoqnaqtw") re.allchar (str.to_re "ajhqgaylfbphsmgoumhjs") (re.* re.allchar) (str.to_re "y") re.allchar (str.to_re "mpppznselozfmrnejijncyyttijmlbciqcpldsihf") (re.* re.allchar) (str.to_re "zrtmpqptxpm") (re.* re.allchar) (str.to_re "nkfblrav") re.allchar (str.to_re "gmn") re.allchar (str.to_re "euuaypixflw") (re.* re.allchar) (str.to_re "brlyvpffpygqgdjvjfejmxlyuojmomnfpmnbbfe") (re.* re.allchar) (str.to_re "xtg") (re.* re.allchar) (str.to_re "saqphwkkhfvqh") (re.* re.allchar) (str.to_re "aggmfpwcjvruqachpznsayr") re.allchar (str.to_re "naqdhiwrimcuwrqrxadsr") re.allchar (str.to_re "dxtuwvakomjscpmlpglffcutxr") (re.* re.allchar) (str.to_re "oq") re.allchar (str.to_re "zvlvchwb") (re.* re.allchar) (str.to_re "gtk") (re.* re.allchar) (str.to_re "zbby") re.allchar (re.* re.allchar) (str.to_re "worwvpngqxbovckgmc") re.allchar (str.to_re "hxtmvjwyhtrvvcxfpymfcznvmvtsnuinvqn") re.allchar (str.to_re "bdzb") re.allchar (str.to_re "sisdlpjozgfevtiwqyzht") (re.* re.allchar) (str.to_re "vqoaslnfpkqfwzoiftotd") re.allchar (str.to_re "nbfnlmbkbytg") (re.* re.allchar) (str.to_re "uibzscuylovzfqwkortsyc") re.allchar (str.to_re "e") re.allchar (str.to_re "z") re.allchar (str.to_re "y") re.allchar (str.to_re "eabmhqoofj") )   (re.++ (str.to_re "ggqxbydkeriqioyzcpqhzwcq") re.allchar (str.to_re "cueijpttlekogcoxbvpmhjq") (re.* re.allchar) (str.to_re "cbcvu") re.allchar (str.to_re "m") re.allchar (str.to_re "f") re.allchar (str.to_re "qd") (re.* re.allchar) (str.to_re "jqkqdyyt") (re.* re.allchar) (str.to_re "im") (re.* re.allchar) (str.to_re "pznpxn") re.allchar (str.to_re "kp") re.allchar (str.to_re "uc") re.allchar (str.to_re "lfoudyx") re.allchar (str.to_re "txhnbiohpjnawzvbyxpjhdg") re.allchar (str.to_re "xt") re.allchar (re.* re.allchar) (str.to_re "gybdbzpntsayktuvfzotacr") (re.* re.allchar) (str.to_re "jaozkpcjg") re.allchar (str.to_re "muygeopnecfaypnordlikpb") (re.* re.allchar) (str.to_re "kocymk") re.allchar (str.to_re "xyqvpywljlmn") (re.* re.allchar) (str.to_re "syqxooaztqr") re.allchar re.allchar (str.to_re "sjnbtvirsx") re.allchar (str.to_re "cngzstzefqozdnrcxzwempxbsoxuxemoggm") re.allchar (str.to_re "oraxkqwjolbhtriwbzo") re.allchar (str.to_re "ebctuqxugdphwmpweujexupzhow") re.allchar (str.to_re "aveurltompfvbi") (re.* re.allchar) (str.to_re "ihbiatxdnbkdgn") (re.* re.allchar) (str.to_re "ilsfdgjk") (re.* re.allchar) (str.to_re "jgsbryuicmkqqjobzsstmuiwqmxsavoccidkccabfxaoiejaewbmygcwsntd") (re.* re.allchar) (str.to_re "xrfbre") (re.* re.allchar) (str.to_re "zpvjksegxcovfoj") (re.* re.allchar) (str.to_re "ouxuinjx") (re.* re.allchar) (str.to_re "ouzoxqi") (re.* re.allchar) (str.to_re "wdulwxefdy") re.allchar (str.to_re "oympzp") re.allchar re.allchar (str.to_re "acdjuc") re.allchar (str.to_re "brzosgvwzaayomrfv") re.allchar (str.to_re "mw") re.allchar (str.to_re "qsltjlnfualbnbaxcuqyw") (re.* re.allchar) (str.to_re "tnsdnalao") re.allchar (str.to_re "dfzsbvr") (re.* re.allchar) (str.to_re "nsmiygdwuhxegqr") re.allchar (str.to_re "rkwjcaqdvscfw") (re.* re.allchar) (str.to_re "hfh") re.allchar (str.to_re "gnunzc") re.allchar (str.to_re "ujxuzah") (re.* re.allchar) (str.to_re "aslvtmvg") (re.* re.allchar) (str.to_re "qn") (re.* re.allchar) (str.to_re "lnmtcnnysepr") re.allchar re.allchar (str.to_re "strsuuc") (re.* re.allchar) (str.to_re "z") (re.* re.allchar) (str.to_re "hutxnamwbxgzsslsbhvrkasracsatsjkuh") re.allchar (str.to_re "nqvmkqthvlocku") re.allchar (str.to_re "blbx") (re.* re.allchar) (str.to_re "jjmmookqekgevfbwbfwrdvflpdgxni") re.allchar (str.to_re "agalndebdfdvdllwgaek") re.allchar (str.to_re "tibizgwezxgjcrdxkh") (re.* re.allchar) (str.to_re "txprqtwmqzshsvumjrqnhsnkkoolx") (re.* re.allchar) (str.to_re "jz") (re.* re.allchar) (str.to_re "zadhndrbylrar") re.allchar (str.to_re "gcydockyqyhsg") re.allchar (str.to_re "igxquoowjquq") (re.* re.allchar) (str.to_re "zqh") (re.* re.allchar) (str.to_re "wlkeubu") (re.* re.allchar) (str.to_re "kczr") re.allchar (re.* re.allchar) (str.to_re "i") (re.* re.allchar) (str.to_re "qydvawmquwrkjlajgr") re.allchar (str.to_re "vesngufirzihcqfdfv") re.allchar (str.to_re "vvjatvakioqvlzmkhvruhqugziwyhyyfopxfrpwa") re.allchar (str.to_re "kgbvnjcmwoyrgrbkilqtefibguhmr") re.allchar (str.to_re "ba") (re.* re.allchar) (str.to_re "zbgygabuvoguyno") re.allchar (str.to_re "alieviwibgcjsf") (re.* re.allchar) (str.to_re "jpw") (re.* re.allchar) (str.to_re "ncpy") re.allchar (str.to_re "eairlyr") (re.* re.allchar) (str.to_re "breuefzzuuozlryyvfgrfhtejiyxg") (re.* re.allchar) (str.to_re "fizeywzxpgtrkwjsqbg") (re.* re.allchar) (str.to_re "wz") re.allchar (str.to_re "ui") (re.* re.allchar) (str.to_re "yrwkzveexibshpf") (re.* re.allchar) (str.to_re "ayqamxet") (re.* re.allchar) (str.to_re "tmgtaqn") (re.* re.allchar) (str.to_re "rnczemfocge") re.allchar (str.to_re "mmraevhqjyxcwpjvvjfacofbgvzm") (re.* re.allchar) (re.* re.allchar) (str.to_re "rtajijb") (re.* re.allchar) (str.to_re "xretpesccmcglpaquoblqzrhlpqlekmwbydlktowibbdhfawe") (re.* re.allchar) re.allchar (str.to_re "vqdyuwrnpb") (re.* re.allchar) (str.to_re "lxe") re.allchar (str.to_re "hbiu") re.allchar (str.to_re "dzlwxqqjgjku") re.allchar (str.to_re "jm") re.allchar (str.to_re "hpvcrylnfsovsmawpbfxvdzaddybakmfaytpseblecyh") re.allchar (str.to_re "wlmlym") re.allchar (str.to_re "o") re.allchar (str.to_re "ebv") (re.* re.allchar) (str.to_re "oqgttichpsyesykasnyyueqmezgwfpf") re.allchar (str.to_re "iixjxhtxhqjn") (re.* re.allchar) (str.to_re "gaawbdwfjyb") re.allchar (str.to_re "tdb") (re.* re.allchar) (str.to_re "xvecr") (re.* re.allchar) (str.to_re "zd") re.allchar (str.to_re "dmcvwvbksgsrlamfq") (re.* re.allchar) (str.to_re "wny") re.allchar (str.to_re "pinncay") (re.* re.allchar) (str.to_re "kr") (re.* re.allchar) (str.to_re "rqcdpljn") (re.* re.allchar) (str.to_re "niqkkqetfxximganbwsnxy") re.allchar (str.to_re "wfxtrbvsreertcphfxpwxzmxeesapkzubkorm") (re.* re.allchar) (str.to_re "rpyo") re.allchar (str.to_re "htm") re.allchar (str.to_re "cfyq") (re.* re.allchar) (str.to_re "zkwghpvb") (re.* re.allchar) (str.to_re "og") re.allchar (str.to_re "mkbiyscosm") (re.* re.allchar) (str.to_re "coxlwswrorvu") re.allchar (str.to_re "dvlixinxioocrru") (re.* re.allchar) (str.to_re "hjfxwpo") (re.* re.allchar) re.allchar (str.to_re "sghjantviwee") re.allchar (str.to_re "bdqnduqnougb") (re.* re.allchar) (str.to_re "g") re.allchar (str.to_re "nyeufuvmetbuayh") re.allchar (str.to_re "ewocidgbz") re.allchar (str.to_re "fn") (re.* re.allchar) (str.to_re "lqd") (re.* re.allchar) (str.to_re "zhwbkj") (re.* re.allchar) (str.to_re "rshxablcuhhludpdudlwunncvhlbmrkvcsdmygmcemmlxizxqydjedxoclt") re.allchar (str.to_re "gtmnx") re.allchar (str.to_re "fnqheqerz") (re.* re.allchar) (str.to_re "dkipnpiubgc") (re.* re.allchar) (str.to_re "fvcgu") re.allchar (str.to_re "wrd") re.allchar (str.to_re "rjmtbo") (re.* re.allchar) (str.to_re "uxeilfauzjksgbvnrtelkraiiuunxjfpaxkejfy") (re.* re.allchar) (str.to_re "iibsxohkstisy") re.allchar (str.to_re "zpwvfrc") re.allchar (str.to_re "zrjoanxzcbydigmcxiehiabe") (re.* re.allchar) (str.to_re "mkmuakraissku") (re.* re.allchar) (str.to_re "sovu") (re.* re.allchar) (str.to_re "bnlqixcqunbgwdujydxuyhlpl") (re.* re.allchar) (str.to_re "rrapuareimolbw") re.allchar (str.to_re "iewgeetuhpejoljqrpdugiaauhazifuoagkpc") re.allchar (str.to_re "hct") (re.* re.allchar) (str.to_re "blamcbsuf") re.allchar (str.to_re "iwkbbgihwihyhtdebcabbksmfyxzu") (re.* re.allchar) (str.to_re "qltcklkxckrpvvrrcoaslomphruv") (re.* re.allchar) (str.to_re "tpyd") (re.* re.allchar) (str.to_re "wuutozuienmtsiysdnqonhr") re.allchar (str.to_re "ocarcfkcfpqrlntyzje") re.allchar (str.to_re "kftjmzcjegvpggccxsr") (re.* re.allchar) (str.to_re "wmma") re.allchar (str.to_re "vhvu") (re.* re.allchar) (str.to_re "fuo") re.allchar (str.to_re "ccntwyjj") (re.* re.allchar) (str.to_re "frxmjpoeacsi") re.allchar (str.to_re "mcgrdkwlstkpzdbykle") (re.* re.allchar) (str.to_re "udgon") re.allchar (str.to_re "u") re.allchar (str.to_re "h") (re.* re.allchar) (str.to_re "j") (re.* re.allchar) (str.to_re "vupavcvtekwn") (re.* re.allchar) (str.to_re "bfsplkzrmxehvbdibfblbrkfglqsla") re.allchar (str.to_re "kkic") (re.* re.allchar) (re.* re.allchar) (str.to_re "iqgggvxioqrvvgggiq") re.allchar (str.to_re "lcxmeayhrxvztylaxy") re.allchar (str.to_re "mag") re.allchar (str.to_re "fwztrxwimggmejmywcm") re.allchar (str.to_re "gg") re.allchar (str.to_re "riimlpaskdujwixfl") re.allchar (str.to_re "sopap") (re.* re.allchar) (str.to_re "kso") (re.* re.allchar) (str.to_re "hsgbmnxav") re.allchar (str.to_re "suqlziccibqhhajdfuiedmtdgf") (re.* re.allchar) (str.to_re "qphimsgvikykzgbfccxammtnhtdeufvfoexuqtxddqy") (re.* re.allchar) (str.to_re "mnyxwnwbhajxaijssnlqosnj") re.allchar (str.to_re "houchxbshdukzghh") (re.* re.allchar) (str.to_re "bcejdzokxnijyzxigp") (re.* re.allchar) (str.to_re "krfhyeegvfzqhfxmfyiqotesvghgzvqgtfngu") (re.* re.allchar) (str.to_re "vrb") re.allchar (str.to_re "sgt") re.allchar (str.to_re "cmsap") re.allchar (str.to_re "aywim") re.allchar (str.to_re "xhfzzaomhfjb") re.allchar (str.to_re "gemlrqtyxskfyffwpovbzwgydquovhirokagbbzokhrwkjqqjwcpwypnacobbmox") re.allchar (str.to_re "kwmtma") (re.* re.allchar) (str.to_re "qpulmicxewctsts") re.allchar (str.to_re "vedwshfwjwlandanju") re.allchar (str.to_re "tqhdjjgm") (re.* re.allchar) (str.to_re "uskmsf") re.allchar (str.to_re "x") (re.* re.allchar) (str.to_re "qrerugxnfunnubbscqcenrdzptpqn") (re.* re.allchar) (str.to_re "meyurbmkd") (re.* re.allchar) (str.to_re "puvrytc") (re.* re.allchar) re.allchar (str.to_re "gzfydqtqcb") (re.* re.allchar) (str.to_re "ykiinluizgdhfevasgbmniazphtwgeyynaygshbqjjzabfkamoo") (re.* re.allchar) (re.* re.allchar) (str.to_re "jnkyevqdkczulmohhcyqxboifspgongwsbbkgxfwxjsecgexvqrmfkzhsfvyyjbbhjsxpazwin") (re.* re.allchar) (str.to_re "iepgobzsmxncbg") re.allchar (str.to_re "odndble") re.allchar (str.to_re "twb") (re.* re.allchar) (str.to_re "htg") re.allchar (str.to_re "ebntpenrain") re.allchar (str.to_re "gh") (re.* re.allchar) (str.to_re "hedysgcjijxecgkyfisxailiu") )  )))
(check-sat)
(exit)
